0 0 0 0
0 1 0 0
0 2 0 0
0 3 0 15
0 4 0 12
0 5 0 9
0 6 0 7
0 7 0 40
0 8 0 49
0 9 0 18
0 10 0 2
0 11 0 9
0 12 0 59
0 13 0 77
0 14 0 59
0 15 0 34
0 16 0 125
0 17 0 69
0 18 0 78
0 19 0 54
0 20 0 17
0 21 0 68
0 22 0 86
0 23 0 32
0 24 0 34
0 25 0 26
0 26 0 26
0 27 0 49
0 28 0 77
0 29 0 48
0 30 0 28
0 31 0 40
0 32 0 66
0 33 0 93
0 34 0 88
0 35 0 96
0 36 0 2
0 37 0 106
0 38 0 131
0 39 0 51
0 40 0 17
0 41 0 117
0 42 0 25
0 43 0 116
0 44 0 91
0 45 0 100
0 46 0 86
0 47 0 104
0 48 0 116
0 49 0 44
0 50 0 98
0 51 0 161
0 52 0 130
0 53 0 116
0 54 0 31
0 55 0 88
0 56 0 84
0 57 0 68
0 58 0 108
0 59 0 54
0 60 0 96
0 61 0 94
0 62 0 59
0 63 0 123
0 64 0 130
0 65 0 93
0 66 0 18
0 67 0 140
0 68 0 91
0 69 0 126
0 70 0 106
0 71 0 88
0 72 0 142
0 73 0 133
0 74 0 155
0 75 0 130
0 76 0 40
0 77 0 108
0 78 0 95
0 79 0 202
0 80 0 161
0 81 0 132
0 82 0 172
0 83 0 134
0 84 0 69
0 85 0 150
0 86 0 126
0 87 0 154
0 88 0 151
0 89 0 149
0 90 0 170
0 91 0 155
0 92 0 13
0 93 0 149
0 94 0 142
0 95 0 154
0 96 0 180
0 97 0 142
0 98 0 180
0 99 0 186
0 100 0 170
0 101 0 151
0 102 0 188
0 103 0 199
0 104 0 172
0 105 0 162
0 106 0 195
0 107 0 170
0 108 0 195
0 109 0 117
0 110 0 200
0 111 0 180
0 112 0 205
0 113 0 206
0 114 0 189
0 115 0 206
0 116 0 151
0 117 0 207
0 118 0 214
0 119 0 203
0 120 0 216
0 121 0 217
